11371834953300764565014,8,1,2,013,13,1,2,06,15,1,2,08,1,1,2,012,5,1,2,011,15,1,2,012,13,1,2,08,13,1,2,02,10,1,2,05,2,1,2,05,13,1,2,015,13,1,2,03,3,1,2,011,8,1,2,012,9,1,2,013,15,1,2,09,2,1,2,05,4,1,2,08,6,1,2,03,5,1,2,01,12,1,2,01,1,1,2,03,9,1,2,07,15,1,2,04,8,1,2,015,12,1,2,015,12,1,2,07,4,1,2,03,10,1,2,011,8,1,2,013,4,1,2,07,15,1,2,04,9,1,2,013,9,1,2,010,3,1,2,011,10,1,2,06,15,1,2,04,13,1,2,04,2,1,2,02,10,1,2,07,11,1,2,09,9,1,2,013,9,1,2,01,13,1,2,02,9,1,2,013,13,1,2,02,4,1,2,012,5,1,2,08,8,1,2,07,1,1,2,0